<number of tasks>
30

<cycle time>
33

<task times>
1 8
2 7
3 19
4 10
5 2
6 6
7 14
8 10
9 1
10 4
11 14
12 15
13 5
14 12
15 9
16 10
17 2
18 10
19 18
20 16
21 21
22 14
23 16
24 7
25 17
26 9
27 25
28 7
29 14
30 2

<precedence relations>
1,4
1,5
2,11
2,12
3,16
3,17
4,7
5,6
6,7
7,8
8,9
9,26
10,24
12,13
13,14
14,15
14,20
15,22
16,20
17,18
18,19
20,21
20,24
21,22
22,23
23,27
24,25
25,26
26,27
27,28
27,29
29,30

<setup times forward>
1,3:2
1,4:2
1,5:3
1,10:3
1,11:4
1,12:2
1,13:1
1,14:1
1,15:2
1,16:1
1,17:2
1,18:2
1,20:1
1,21:3
1,22:3
1,23:3
2,3:2
2,4:2
2,5:3
2,6:3
2,7:2
2,8:2
2,9:3
2,10:3
2,11:4
2,12:2
2,16:1
2,17:2
2,18:2
3,1:2
3,2:2
3,5:1
3,6:1
3,9:1
3,10:1
3,11:2
3,13:1
3,14:1
3,16:1
4,2:2
4,5:1
4,6:1
4,10:1
4,11:2
4,13:1
4,14:1
4,16:1
4,19:2
4,20:1
4,21:1
4,22:1
4,23:1
4,24:2
4,25:2
5,2:3
5,3:1
5,4:1
5,11:1
5,12:1
5,13:2
5,14:2
5,15:1
5,16:2
5,17:1
5,18:1
5,19:3
5,20:2
5,24:3
5,25:3
6,2:3
6,3:1
6,4:1
6,7:1
6,11:1
6,12:1
6,13:2
6,14:2
6,15:1
6,16:2
6,17:1
6,18:1
6,19:3
6,20:2
6,24:3
6,25:3
7,2:2
7,10:1
7,11:2
7,13:1
7,14:1
7,16:1
7,19:2
7,20:1
7,21:1
7,22:1
7,23:1
7,24:2
7,25:2
8,2:2
8,9:1
8,10:1
8,11:2
8,13:1
8,14:1
8,16:1
8,19:2
8,20:1
8,21:1
8,22:1
8,23:1
8,24:2
8,25:2
9,2:3
9,3:1
9,11:1
9,12:1
9,13:2
9,14:2
9,15:1
9,16:2
9,17:1
9,18:1
9,19:3
9,20:2
9,24:3
9,25:3
9,26:3
10,1:3
10,2:3
10,3:1
10,4:1
10,7:1
10,8:1
10,11:1
10,12:1
10,13:2
10,14:2
10,15:1
10,16:2
10,17:1
10,18:1
10,19:3
10,20:2
10,24:3
11,1:4
11,3:2
11,4:2
11,5:1
11,6:1
11,7:2
11,8:2
11,9:1
11,10:1
11,12:2
11,13:3
11,14:3
11,15:2
11,16:3
11,17:2
11,18:2
11,19:4
11,20:3
11,21:1
11,22:1
11,23:1
11,24:4
11,25:4
11,26:4
11,27:2
11,28:2
12,1:2
12,5:1
12,6:1
12,9:1
12,10:1
12,11:2
12,13:1
12,16:1
12,19:2
13,1:1
13,3:1
13,4:1
13,5:2
13,6:2
13,7:1
13,8:1
13,9:2
13,10:2
13,11:3
13,17:1
13,18:1
13,19:1
14,1:1
14,3:1
14,4:1
14,5:2
14,6:2
14,7:1
14,8:1
14,9:2
14,10:2
14,11:3
14,15:1
14,17:1
14,18:1
14,19:1
15,1:2
15,5:1
15,6:1
15,9:1
15,10:1
15,11:2
15,16:1
15,19:2
15,20:1
15,21:1
15,22:1
15,24:2
15,25:2
15,26:2
16,1:1
16,2:1
16,4:1
16,5:2
16,6:2
16,7:1
16,8:1
16,9:2
16,10:2
16,11:3
16,12:1
16,15:1
16,17:1
16,18:1
16,19:1
17,1:2
17,2:2
17,5:1
17,6:1
17,9:1
17,10:1
17,11:2
17,13:1
17,14:1
17,16:1
17,20:1
17,21:1
17,22:1
17,23:1
17,24:2
17,25:2
17,26:2
17,29:2
17,30:2
18,1:2
18,2:2
18,5:1
18,6:1
18,9:1
18,10:1
18,11:2
18,13:1
18,14:1
18,16:1
18,19:2
18,20:1
18,21:1
18,22:1
18,23:1
18,24:2
18,25:2
18,26:2
18,29:2
18,30:2
19,4:2
19,5:3
19,6:3
19,7:2
19,8:2
19,9:3
19,10:3
19,11:4
19,12:2
19,13:1
19,14:1
19,15:2
19,16:1
19,20:1
19,21:3
19,22:3
19,23:3
19,27:2
19,28:2
19,29:4
19,30:4
20,1:1
20,4:1
20,5:2
20,6:2
20,7:1
20,8:1
20,9:2
20,10:2
20,11:3
20,15:1
20,17:1
20,18:1
20,19:1
20,21:2
20,24:1
21,1:3
21,4:1
21,7:1
21,8:1
21,11:1
21,15:1
21,17:1
21,18:1
21,19:3
21,24:3
21,25:3
21,26:3
22,1:3
22,4:1
22,7:1
22,8:1
22,11:1
22,17:1
22,18:1
22,19:3
22,24:3
22,25:3
22,26:3
23,1:3
23,4:1
23,7:1
23,8:1
23,11:1
23,17:1
23,18:1
23,19:3
23,24:3
23,25:3
23,26:3
23,27:1
24,4:2
24,5:3
24,6:3
24,7:2
24,8:2
24,9:3
24,11:4
24,15:2
24,17:2
24,18:2
24,21:3
24,22:3
24,23:3
25,4:2
25,5:3
25,6:3
25,7:2
25,8:2
25,9:3
25,11:4
25,15:2
25,17:2
25,18:2
25,21:3
25,22:3
25,23:3
26,11:4
26,15:2
26,17:2
26,18:2
26,21:3
26,22:3
26,23:3
26,27:2
27,11:2
27,19:2
27,29:2
28,11:2
28,19:2
28,29:2
28,30:2
29,17:2
29,18:2
29,19:4
29,28:2
30,17:2
30,18:2
30,19:4
30,28:2

<setup times backward>
1,3:2
1,10:3
1,11:4
1,12:2
1,13:1
1,14:1
1,15:2
1,16:1
1,17:2
1,18:2
1,20:1
1,21:3
1,22:3
1,23:3
2,3:2
2,4:2
2,5:3
2,6:3
2,7:2
2,8:2
2,9:3
2,10:3
2,16:1
2,17:2
2,18:2
3,5:1
3,6:1
3,9:1
3,10:1
3,11:2
4,5:1
4,6:1
4,10:1
4,11:2
4,21:1
4,22:1
4,23:1
5,11:1
6,11:1
7,5:1
7,6:1
7,10:1
7,11:2
7,21:1
7,22:1
7,23:1
8,5:1
8,6:1
8,10:1
8,11:2
8,21:1
8,22:1
8,23:1
9,11:1
10,11:1
12,5:1
12,6:1
12,9:1
12,10:1
12,11:2
13,3:1
13,4:1
13,5:2
13,6:2
13,7:1
13,8:1
13,9:2
13,10:2
13,11:3
13,12:1
13,17:1
13,18:1
14,3:1
14,4:1
14,5:2
14,6:2
14,7:1
14,8:1
14,9:2
14,10:2
14,11:3
14,12:1
14,17:1
14,18:1
15,5:1
15,6:1
15,9:1
15,10:1
15,11:2
15,21:1
16,3:1
16,4:1
16,5:2
16,6:2
16,7:1
16,8:1
16,9:2
16,10:2
16,11:3
16,12:1
16,15:1
16,17:1
16,18:1
17,5:1
17,6:1
17,9:1
17,10:1
17,11:2
17,21:1
17,22:1
17,23:1
17,29:2
17,30:2
18,5:1
18,6:1
18,9:1
18,10:1
18,11:2
18,21:1
18,22:1
18,23:1
18,29:2
18,30:2
19,3:2
19,4:2
19,5:3
19,6:3
19,7:2
19,8:2
19,9:3
19,10:3
19,11:4
19,12:2
19,13:1
19,14:1
19,15:2
19,16:1
19,17:2
19,18:2
19,20:1
19,21:3
19,22:3
19,23:3
19,27:2
19,28:2
19,29:4
19,30:4
20,3:1
20,4:1
20,5:2
20,6:2
20,7:1
20,8:1
20,9:2
20,10:2
20,11:3
20,12:1
20,15:1
20,17:1
20,18:1
21,11:1
22,11:1
23,11:1
24,3:2
24,4:2
24,5:3
24,6:3
24,7:2
24,8:2
24,9:3
24,10:3
24,11:4
24,12:2
24,13:1
24,14:1
24,15:2
24,16:1
24,17:2
24,18:2
24,20:1
24,21:3
24,22:3
24,23:3
25,3:2
25,4:2
25,5:3
25,6:3
25,7:2
25,8:2
25,9:3
25,10:3
25,11:4
25,12:2
25,13:1
25,14:1
25,15:2
25,16:1
25,17:2
25,18:2
25,20:1
25,21:3
25,22:3
25,23:3
26,3:2
26,4:2
26,5:3
26,6:3
26,7:2
26,8:2
26,9:3
26,10:3
26,11:4
26,12:2
26,13:1
26,14:1
26,15:2
26,16:1
26,17:2
26,18:2
26,20:1
26,21:3
26,22:3
26,23:3
27,5:1
27,6:1
27,9:1
27,10:1
27,11:2
27,21:1
27,22:1
27,23:1
28,5:1
28,6:1
28,9:1
28,10:1
28,11:2
28,21:1
28,22:1
28,23:1
28,29:2
28,30:2

<end>

<optimal SALBP-1 value>
11


<rand seed>
467321153

